====================================================================================================================
File name: 200_40_45_15.def
Creation date: Mon Nov 24 20:40:31 CET 2014
Website: http://imopse.ii.pwr.edu.pl/
Reference:
Myszkowski P. B., Skowronski M. E., Olech L., Oslizlo K.,
Hybrid Ant Colony Optimization in solving Multi-Skill Resource-Constrained Project Scheduling Problem,
Soft Computing, DOI: DOI 10.1007/s00500-014-1455-x
====================================================================================================================
General characteristics:
Tasks: 200
Resources: 40
Precedence relations: 45
Number of skill types: 15
====================================================================================================================
ResourceID 	 Salary 	 Skills
1	 	 	93.8	 	 Q13: 1 	  Q10: 2 	  Q3: 0 	  Q7: 2 	  Q6: 2 	  Q5: 2
2	 	 	45.5	 	 Q4: 1 	  Q0: 2 	  Q6: 2 	  Q12: 2 	  Q14: 1 	  Q7: 0
3	 	 	54.6	 	 Q14: 1 	  Q7: 0 	  Q4: 1 	  Q10: 0 	  Q5: 1 	  Q11: 0
4	 	 	71.1	 	 Q5: 0 	  Q12: 0 	  Q4: 0 	  Q8: 0 	  Q10: 1 	  Q13: 0
5	 	 	93.9	 	 Q1: 1 	  Q10: 0 	  Q3: 1 	  Q14: 0 	  Q0: 1 	  Q2: 1
6	 	 	52.6	 	 Q5: 1 	  Q9: 2 	  Q6: 0 	  Q14: 1 	  Q13: 1 	  Q2: 1
7	 	 	40.8	 	 Q0: 2 	  Q3: 0 	  Q7: 1 	  Q12: 2 	  Q14: 2 	  Q1: 0
8	 	 	92.8	 	 Q9: 0 	  Q6: 2 	  Q5: 0 	  Q13: 2 	  Q3: 0 	  Q7: 0
9	 	 	61.8	 	 Q9: 2 	  Q3: 0 	  Q4: 2 	  Q2: 1 	  Q7: 2 	  Q5: 1
10	 	 	12.9	 	 Q4: 1 	  Q0: 2 	  Q2: 2 	  Q1: 2 	  Q11: 0 	  Q3: 2
11	 	 	47.8	 	 Q6: 2 	  Q10: 1 	  Q12: 0 	  Q14: 2 	  Q8: 2 	  Q3: 2
12	 	 	63.6	 	 Q8: 0 	  Q2: 2 	  Q10: 2 	  Q6: 2 	  Q3: 0 	  Q1: 0
13	 	 	92.7	 	 Q7: 2 	  Q2: 1 	  Q9: 0 	  Q4: 2 	  Q0: 0 	  Q13: 0
14	 	 	52.6	 	 Q9: 2 	  Q10: 0 	  Q7: 1 	  Q1: 1 	  Q3: 2 	  Q13: 0
15	 	 	82.3	 	 Q11: 0 	  Q13: 2 	  Q14: 0 	  Q4: 1 	  Q12: 0 	  Q0: 1
16	 	 	25.7	 	 Q3: 2 	  Q10: 2 	  Q4: 0 	  Q2: 1 	  Q11: 2 	  Q1: 0
17	 	 	64.0	 	 Q0: 2 	  Q3: 1 	  Q13: 0 	  Q6: 0 	  Q9: 1 	  Q12: 0
18	 	 	16.6	 	 Q1: 2 	  Q10: 2 	  Q13: 2 	  Q0: 1 	  Q9: 1 	  Q2: 0
19	 	 	73.9	 	 Q4: 1 	  Q8: 0 	  Q5: 0 	  Q10: 2 	  Q13: 0 	  Q0: 1
20	 	 	33.8	 	 Q6: 2 	  Q5: 0 	  Q11: 1 	  Q14: 1 	  Q7: 2 	  Q2: 0
21	 	 	58.2	 	 Q6: 1 	  Q14: 1 	  Q3: 2 	  Q0: 2 	  Q11: 2 	  Q1: 0
22	 	 	62.9	 	 Q10: 2 	  Q12: 2 	  Q6: 2 	  Q1: 2 	  Q3: 2 	  Q9: 0
23	 	 	23.7	 	 Q6: 2 	  Q13: 0 	  Q12: 0 	  Q2: 2 	  Q3: 0 	  Q11: 2
24	 	 	60.9	 	 Q7: 0 	  Q13: 2 	  Q1: 1 	  Q14: 2 	  Q3: 2 	  Q9: 2
25	 	 	98.1	 	 Q11: 0 	  Q9: 2 	  Q14: 0 	  Q2: 2 	  Q4: 0 	  Q3: 0
26	 	 	41.9	 	 Q2: 0 	  Q13: 1 	  Q7: 2 	  Q10: 0 	  Q1: 1 	  Q4: 1
27	 	 	83.0	 	 Q11: 1 	  Q3: 1 	  Q9: 1 	  Q12: 0 	  Q0: 0 	  Q8: 2
28	 	 	35.9	 	 Q13: 1 	  Q7: 2 	  Q10: 1 	  Q14: 0 	  Q5: 1 	  Q9: 2
29	 	 	32.8	 	 Q4: 2 	  Q9: 1 	  Q12: 1 	  Q10: 1 	  Q5: 0 	  Q1: 2
30	 	 	72.3	 	 Q2: 0 	  Q10: 2 	  Q5: 0 	  Q13: 0 	  Q9: 2 	  Q3: 2
31	 	 	19.6	 	 Q11: 1 	  Q12: 1 	  Q4: 1 	  Q14: 0 	  Q2: 1 	  Q10: 1
32	 	 	50.5	 	 Q7: 0 	  Q14: 1 	  Q13: 2 	  Q0: 1 	  Q5: 1 	  Q9: 0
33	 	 	91.7	 	 Q13: 2 	  Q11: 2 	  Q0: 1 	  Q10: 0 	  Q2: 0 	  Q1: 1
34	 	 	11.3	 	 Q12: 1 	  Q2: 2 	  Q5: 1 	  Q0: 2 	  Q8: 2 	  Q9: 2
35	 	 	19.0	 	 Q12: 2 	  Q2: 2 	  Q8: 1 	  Q7: 0 	  Q10: 2 	  Q3: 2
36	 	 	62.1	 	 Q5: 1 	  Q6: 2 	  Q1: 1 	  Q12: 1 	  Q3: 2 	  Q11: 0
37	 	 	29.3	 	 Q8: 1 	  Q6: 0 	  Q14: 0 	  Q7: 2 	  Q1: 0 	  Q4: 0
38	 	 	26.5	 	 Q11: 2 	  Q2: 0 	  Q5: 1 	  Q3: 2 	  Q6: 2 	  Q14: 2
39	 	 	53.0	 	 Q3: 1 	  Q12: 0 	  Q10: 1 	  Q11: 1 	  Q13: 1 	  Q2: 1
40	 	 	50.7	 	 Q6: 2 	  Q9: 2 	  Q3: 0 	  Q10: 0 	  Q5: 1 	  Q8: 2
====================================================================================================================
TaskID 	 Duration 	 Skill 	 Predecessor IDs
1	 	 	21	 Q3: 2
2	 	 	39	 Q11: 2
3	 	 	31	 Q13: 0
4	 	 	13	 Q2: 2
5	 	 	31	 Q13: 1
6	 	 	40	 Q12: 0
7	 	 	17	 Q14: 1
8	 	 	39	 Q0: 1
9	 	 	15	 Q14: 0
10	 	 	26	 Q4: 0	 	2
11	 	 	11	 Q4: 2
12	 	 	31	 Q12: 0
13	 	 	38	 Q5: 1	 	1
14	 	 	19	 Q4: 1
15	 	 	29	 Q3: 2
16	 	 	20	 Q12: 0
17	 	 	30	 Q13: 2
18	 	 	35	 Q1: 0
19	 	 	34	 Q9: 0
20	 	 	12	 Q6: 2
21	 	 	40	 Q7: 0
22	 	 	29	 Q12: 2
23	 	 	16	 Q0: 0
24	 	 	20	 Q2: 0
25	 	 	13	 Q0: 1
26	 	 	20	 Q12: 2
27	 	 	31	 Q2: 1
28	 	 	26	 Q13: 1
29	 	 	11	 Q14: 2	 	14
30	 	 	23	 Q1: 1
31	 	 	24	 Q10: 2
32	 	 	34	 Q13: 2
33	 	 	16	 Q10: 2
34	 	 	21	 Q5: 0
35	 	 	30	 Q3: 2
36	 	 	27	 Q13: 2
37	 	 	22	 Q1: 1
38	 	 	28	 Q2: 0
39	 	 	28	 Q0: 0
40	 	 	28	 Q1: 1
41	 	 	18	 Q13: 2
42	 	 	11	 Q9: 1
43	 	 	40	 Q1: 2
44	 	 	16	 Q7: 0
45	 	 	15	 Q7: 1	 	43
46	 	 	19	 Q6: 2
47	 	 	31	 Q12: 0
48	 	 	28	 Q12: 1	 	5	11
49	 	 	29	 Q0: 2
50	 	 	20	 Q6: 1
51	 	 	16	 Q7: 1
52	 	 	35	 Q13: 2
53	 	 	18	 Q10: 0
54	 	 	17	 Q13: 2
55	 	 	31	 Q6: 1
56	 	 	19	 Q5: 0
57	 	 	18	 Q7: 2	 	35
58	 	 	34	 Q3: 1
59	 	 	18	 Q14: 1
60	 	 	22	 Q4: 0	 	39
61	 	 	15	 Q4: 1
62	 	 	27	 Q4: 2
63	 	 	28	 Q3: 0	 	35
64	 	 	14	 Q2: 1
65	 	 	16	 Q1: 1
66	 	 	27	 Q12: 2
67	 	 	30	 Q7: 0
68	 	 	21	 Q3: 0
69	 	 	33	 Q12: 2
70	 	 	16	 Q7: 2
71	 	 	28	 Q11: 2
72	 	 	11	 Q10: 0
73	 	 	36	 Q2: 0
74	 	 	27	 Q7: 1
75	 	 	31	 Q3: 2
76	 	 	40	 Q5: 0
77	 	 	40	 Q10: 2
78	 	 	18	 Q5: 1
79	 	 	31	 Q11: 1
80	 	 	33	 Q4: 1
81	 	 	11	 Q2: 2
82	 	 	34	 Q3: 0
83	 	 	17	 Q8: 1
84	 	 	31	 Q12: 1
85	 	 	9	 Q8: 0
86	 	 	27	 Q1: 1
87	 	 	12	 Q0: 0
88	 	 	21	 Q14: 1
89	 	 	36	 Q14: 2
90	 	 	26	 Q8: 0
91	 	 	9	 Q9: 2
92	 	 	27	 Q9: 0	 	5
93	 	 	30	 Q0: 1
94	 	 	13	 Q3: 1
95	 	 	30	 Q1: 1
96	 	 	16	 Q3: 0
97	 	 	22	 Q13: 2
98	 	 	37	 Q1: 1
99	 	 	37	 Q1: 1	 	89
100	 	 	18	 Q10: 1
101	 	 	28	 Q13: 1
102	 	 	27	 Q10: 0	 	18
103	 	 	33	 Q8: 0
104	 	 	28	 Q13: 0
105	 	 	27	 Q1: 0
106	 	 	21	 Q14: 2
107	 	 	21	 Q14: 2
108	 	 	18	 Q3: 2
109	 	 	28	 Q14: 2
110	 	 	33	 Q1: 2	 	89
111	 	 	29	 Q1: 0
112	 	 	25	 Q0: 1
113	 	 	24	 Q9: 1
114	 	 	20	 Q5: 2
115	 	 	22	 Q8: 1	 	76
116	 	 	14	 Q3: 2
117	 	 	39	 Q14: 1
118	 	 	29	 Q3: 1
119	 	 	12	 Q8: 1
120	 	 	16	 Q2: 0
121	 	 	12	 Q5: 0
122	 	 	31	 Q8: 0
123	 	 	24	 Q12: 1	 	61
124	 	 	24	 Q1: 1
125	 	 	24	 Q14: 0
126	 	 	33	 Q6: 2
127	 	 	11	 Q3: 2	 	32
128	 	 	12	 Q14: 0
129	 	 	16	 Q7: 1	 	52
130	 	 	23	 Q0: 1
131	 	 	28	 Q10: 2
132	 	 	25	 Q14: 0
133	 	 	9	 Q8: 2
134	 	 	25	 Q0: 0
135	 	 	12	 Q2: 0
136	 	 	16	 Q0: 2
137	 	 	25	 Q8: 2	 	31
138	 	 	29	 Q12: 1
139	 	 	40	 Q11: 0
140	 	 	27	 Q9: 0
141	 	 	15	 Q1: 1
142	 	 	18	 Q14: 0
143	 	 	26	 Q9: 1	 	6
144	 	 	33	 Q11: 0
145	 	 	39	 Q7: 1	 	71
146	 	 	23	 Q8: 1	 	97
147	 	 	39	 Q3: 0
148	 	 	36	 Q13: 2	 	100	94
149	 	 	13	 Q6: 0	 	75
150	 	 	29	 Q5: 0	 	27
151	 	 	18	 Q5: 2	 	134
152	 	 	9	 Q0: 0
153	 	 	18	 Q5: 2
154	 	 	30	 Q6: 2	 	123
155	 	 	33	 Q9: 1
156	 	 	11	 Q11: 1	 	5
157	 	 	37	 Q5: 2
158	 	 	10	 Q5: 0
159	 	 	24	 Q7: 0	 	136
160	 	 	31	 Q9: 0
161	 	 	26	 Q12: 0	 	103	116
162	 	 	23	 Q8: 2	 	112
163	 	 	14	 Q10: 1
164	 	 	23	 Q7: 2
165	 	 	11	 Q5: 1
166	 	 	10	 Q5: 1
167	 	 	31	 Q12: 0
168	 	 	35	 Q6: 2
169	 	 	35	 Q8: 1
170	 	 	28	 Q0: 0	 	7
171	 	 	17	 Q7: 0
172	 	 	26	 Q2: 1
173	 	 	23	 Q8: 0	 	127
174	 	 	34	 Q5: 2	 	166	104
175	 	 	30	 Q14: 0
176	 	 	12	 Q11: 2	 	118
177	 	 	30	 Q10: 0
178	 	 	28	 Q6: 0	 	138
179	 	 	24	 Q0: 1
180	 	 	8	 Q14: 0
181	 	 	18	 Q10: 2
182	 	 	16	 Q9: 1
183	 	 	14	 Q7: 2
184	 	 	15	 Q7: 2
185	 	 	36	 Q11: 1	 	51
186	 	 	24	 Q5: 0	 	182
187	 	 	35	 Q2: 0
188	 	 	28	 Q14: 0
189	 	 	30	 Q5: 1	 	140
190	 	 	25	 Q6: 0	 	60
191	 	 	30	 Q9: 1
192	 	 	25	 Q13: 1
193	 	 	33	 Q14: 2	 	192
194	 	 	27	 Q2: 1
195	 	 	22	 Q14: 1	 	146	121
196	 	 	32	 Q5: 2
197	 	 	12	 Q11: 2
198	 	 	24	 Q7: 0
199	 	 	20	 Q1: 0
200	 	 	40	 Q5: 0
====================================================================================================================
